%%% static parameters %%%
timespan = 1;
Fact = [2];
Distr1 = [5];
Distr2 = [10];
Clients_N = [100];
Demand_W = [15];
Lt0 = [4];
Lt1 = [4];
SS_ = [0.85];
DS_D = [8];
K = [200];
MA = [500];
%%% dynamic parameters %%%
lost_ratio_sales_ret_th = 0.35307748016209095;
lost_ratio_sales_ret_w = 43;
lost_ratio_sales_dis_th = 0.5863880281715791;
lost_ratio_sales_dis_w = 52;
lost_ratio_sales_fac_th = 0.8578872264004496;
lost_ratio_sales_fac_w = 84;
stock_customer_MA_mean_relative_th = 0.8689848616740413;
stock_customer_MA_mean_relative_w = 21;
stock_distributor_MA_mean_relative_th = 0.1543597784709848;
stock_distributor_MA_mean_relative_w = 1;
stock_retailer_MA_mean_relative_th = 0.6094542708648648;
stock_retailer_MA_mean_relative_w = 76;
stock_factory_MA_mean_relative_th = 0.43856531131751697;
stock_factory_MA_mean_relative_w = 30;
